polyacetylene CCSD          
1.0
     2.46196400      0.00000000      0.00000000
     0.00000000     20.00000000      0.00000000
     0.00000000      0.00000000     20.10000000
C H
2 2
Cartesian
     0.04525090     10.23246437     10.00000000
     1.23553171      9.58484963     10.00000000
     0.05084694     11.31777802     10.00000000
     1.22999229      8.49943616     10.00000000
