polyacetylene CCSD          
   1.0000000000000000     
     2.4619640000000000    0.0000000000000000    0.0000000000000000
     0.0000000000000000   99.8173140000000000    0.0000000000000000
     0.0000000000000000    0.0000000000000000   80.0338300000000000
   C    H 
     2     2
Direct
  0.018380 0.503244 0.500000
  0.501848 0.496756 0.500000
  0.020653 0.514117 0.500000
  0.499598 0.485882 0.500000